************************************************************************
file with basedata            : mm43_.bas
initial value random generator: 17320
************************************************************************
projects                      :  1
jobs (incl. supersource/sink ):  12
horizon                       :  77
RESOURCES
  - renewable                 :  2   R
  - nonrenewable              :  2   N
  - doubly constrained        :  0   D
************************************************************************
PROJECT INFORMATION:
pronr.  #jobs rel.date duedate tardcost  MPM-Time
    1     10      0       15        0       15
************************************************************************
PRECEDENCE RELATIONS:
jobnr.    #modes  #successors   successors
   0        1          3           1   2   3
   1        3          1           4
   2        3          2           7   9
   3        3          3           4   5   6
   4        3          2           8  10
   5        3          1           8
   6        3          2           7   9
   7        3          1           8
   8        3          1          11
   9        3          1          11
  10        3          1          11
  11        1          0        
************************************************************************
REQUESTS/DURATIONS:
jobnr. mode duration  R 1  R 2  R 3  R 4  E(W 1)
------------------------------------------------------------------------
  0      1     0       0    0    0    0     0
  1      1     5       7    7    0    5    95
  2      1     3       2   10    0    6    54
  3      1     4       8    4    6    0    72
  4      1     8       4    9    8    0    168
  5      1     2       9    6   10    0    50
  6      1     2       3    5    3    0    22
  7      1     1       3    8    0    7    18
  8      1     1       6    8    0   10    24
  9      1     7       3    7    3    0    91
 10      1     2       2    6    4    0    24
 11      1     0       0    0    0    0     0
************************************************************************
RESOURCEAVAILABILITIES:
  R 1
   108
************************************************************************
RESOURCE LIMITS:
jobnr.  l(R 1)  u(R 1)
------------------------------------------------------------------------
  0        0       0
  1       11      19
  2        9      18
  3        9      18
  4       11      21
  5       13      25
  6        7      11
  7       10      18
  8       12      24
  9        8      13
 10        6      12
 11        0       0
************************************************************************
SCENARIOS:
------------------------------------------------------------------------
RESOURCE k = 1
s = 1: (0, 90, 53, 89, 139, 55, 30, 17, 25, 79, 17, 0)
s = 2: (0, 61, 74, 57, 98, 66, 25, 18, 14, 59, 25, 0)
s = 3: (0, 91, 51, 54, 143, 35, 31, 14, 36, 117, 17, 0)
s = 4: (0, 77, 49, 57, 130, 62, 21, 14, 16, 86, 25, 0)
s = 5: (0, 87, 52, 57, 131, 72, 15, 11, 21, 55, 20, 0)
s = 6: (0, 133, 53, 126, 114, 61, 32, 12, 17, 58, 16, 0)
s = 7: (0, 87, 33, 75, 128, 50, 32, 14, 22, 69, 16, 0)
s = 8: (0, 96, 43, 58, 116, 39, 36, 12, 18, 92, 18, 0)
s = 9: (0, 82, 52, 100, 134, 53, 29, 20, 20, 66, 22, 0)
s = 10: (0, 50, 52, 53, 155, 53, 19, 30, 16, 57, 24, 0)
s = 11: (0, 62, 50, 57, 291, 56, 13, 16, 28, 87, 19, 0)
s = 12: (0, 79, 46, 125, 223, 53, 30, 17, 13, 146, 33, 0)
s = 13: (0, 118, 31, 69, 188, 92, 20, 23, 21, 105, 24, 0)
s = 14: (0, 78, 63, 96, 200, 71, 25, 19, 19, 155, 36, 0)
s = 15: (0, 76, 66, 78, 151, 51, 24, 22, 42, 109, 27, 0)
s = 16: (0, 131, 57, 82, 184, 57, 33, 24, 27, 134, 33, 0)
s = 17: (0, 83, 36, 75, 110, 30, 22, 19, 29, 102, 21, 0)
s = 18: (0, 64, 58, 55, 253, 50, 27, 17, 18, 52, 24, 0)
s = 19: (0, 111, 61, 43, 188, 58, 23, 14, 24, 119, 25, 0)
s = 20: (0, 108, 34, 76, 120, 42, 21, 15, 36, 118, 26, 0)
s = 21: (0, 102, 60, 81, 147, 61, 29, 13, 23, 95, 21, 0)
s = 22: (0, 102, 54, 122, 94, 34, 27, 15, 24, 79, 22, 0)
s = 23: (0, 106, 42, 57, 201, 27, 33, 15, 26, 64, 27, 0)
s = 24: (0, 103, 45, 93, 180, 34, 23, 17, 31, 85, 18, 0)
s = 25: (0, 78, 62, 104, 146, 44, 25, 14, 18, 107, 19, 0)
s = 26: (0, 87, 83, 102, 169, 57, 20, 10, 16, 91, 20, 0)
s = 27: (0, 99, 33, 60, 129, 39, 33, 14, 26, 127, 31, 0)
s = 28: (0, 89, 59, 78, 210, 33, 14, 16, 15, 93, 17, 0)
s = 29: (0, 159, 38, 68, 123, 74, 25, 26, 24, 98, 32, 0)
s = 30: (0, 85, 42, 82, 161, 74, 30, 15, 35, 75, 25, 0)
s = 31: (0, 117, 44, 73, 120, 50, 25, 12, 24, 126, 22, 0)
s = 32: (0, 122, 45, 76, 160, 56, 19, 16, 22, 80, 27, 0)
s = 33: (0, 101, 48, 40, 158, 49, 16, 20, 22, 77, 28, 0)
s = 34: (0, 69, 59, 103, 150, 39, 25, 18, 29, 80, 18, 0)
s = 35: (0, 85, 35, 86, 160, 43, 17, 22, 26, 79, 35, 0)
s = 36: (0, 61, 64, 59, 115, 31, 21, 19, 31, 125, 28, 0)
s = 37: (0, 74, 50, 80, 150, 35, 22, 20, 31, 114, 22, 0)
s = 38: (0, 113, 64, 52, 131, 60, 38, 15, 31, 81, 31, 0)
s = 39: (0, 89, 86, 101, 180, 38, 18, 14, 17, 48, 25, 0)
s = 40: (0, 86, 38, 41, 114, 44, 28, 23, 30, 61, 30, 0)
s = 41: (0, 57, 85, 88, 134, 41, 13, 21, 21, 114, 23, 0)
s = 42: (0, 102, 62, 69, 205, 44, 23, 19, 27, 90, 16, 0)
s = 43: (0, 87, 54, 59, 97, 43, 27, 14, 17, 74, 16, 0)
s = 44: (0, 119, 40, 52, 156, 43, 19, 17, 14, 144, 28, 0)
s = 45: (0, 129, 71, 71, 161, 36, 18, 15, 23, 70, 20, 0)
s = 46: (0, 148, 57, 44, 210, 35, 18, 20, 15, 70, 25, 0)
s = 47: (0, 172, 58, 51, 122, 56, 22, 21, 16, 53, 36, 0)
s = 48: (0, 106, 44, 74, 140, 29, 24, 12, 20, 115, 30, 0)
s = 49: (0, 117, 65, 65, 267, 50, 16, 23, 31, 84, 36, 0)
s = 50: (0, 73, 47, 68, 173, 28, 22, 23, 22, 75, 29, 0)
s = 51: (0, 125, 73, 41, 200, 32, 22, 23, 16, 58, 30, 0)
s = 52: (0, 82, 57, 83, 131, 57, 19, 21, 36, 113, 19, 0)
s = 53: (0, 62, 68, 85, 200, 81, 25, 18, 35, 81, 20, 0)
s = 54: (0, 83, 50, 66, 156, 34, 27, 24, 19, 74, 14, 0)
s = 55: (0, 117, 69, 48, 198, 68, 29, 17, 34, 73, 19, 0)
s = 56: (0, 83, 57, 74, 138, 67, 34, 16, 35, 70, 29, 0)
s = 57: (0, 66, 67, 88, 221, 56, 20, 20, 16, 68, 26, 0)
s = 58: (0, 132, 43, 57, 110, 36, 19, 16, 42, 89, 26, 0)
s = 59: (0, 121, 62, 67, 204, 85, 13, 22, 31, 92, 23, 0)
s = 60: (0, 133, 47, 86, 149, 44, 19, 21, 21, 104, 24, 0)
s = 61: (0, 111, 37, 46, 210, 88, 17, 22, 31, 127, 20, 0)
s = 62: (0, 105, 53, 93, 196, 78, 30, 27, 31, 66, 32, 0)
s = 63: (0, 72, 76, 102, 124, 48, 20, 17, 26, 78, 26, 0)
s = 64: (0, 78, 58, 69, 194, 43, 36, 17, 19, 114, 18, 0)
s = 65: (0, 111, 82, 81, 144, 75, 27, 20, 28, 84, 27, 0)
s = 66: (0, 76, 65, 97, 259, 39, 14, 12, 14, 88, 18, 0)
s = 67: (0, 85, 58, 72, 198, 54, 35, 17, 20, 79, 34, 0)
s = 68: (0, 80, 69, 108, 138, 33, 16, 17, 19, 93, 30, 0)
s = 69: (0, 73, 54, 50, 216, 53, 28, 23, 19, 58, 27, 0)
s = 70: (0, 66, 39, 64, 205, 53, 23, 11, 24, 70, 31, 0)
s = 71: (0, 60, 48, 68, 131, 63, 16, 18, 28, 70, 30, 0)
s = 72: (0, 109, 52, 51, 158, 47, 33, 21, 27, 76, 32, 0)
s = 73: (0, 57, 73, 52, 167, 71, 18, 19, 22, 90, 16, 0)
s = 74: (0, 83, 67, 67, 219, 32, 20, 16, 17, 98, 22, 0)
s = 75: (0, 87, 52, 93, 102, 40, 25, 16, 24, 56, 26, 0)
s = 76: (0, 77, 42, 83, 172, 61, 23, 20, 21, 140, 23, 0)
s = 77: (0, 108, 39, 127, 115, 63, 45, 11, 40, 57, 26, 0)
s = 78: (0, 124, 46, 63, 219, 51, 12, 18, 21, 56, 16, 0)
s = 79: (0, 117, 39, 63, 244, 41, 16, 17, 23, 127, 30, 0)
s = 80: (0, 74, 34, 72, 205, 66, 32, 11, 25, 70, 29, 0)
s = 81: (0, 85, 33, 55, 218, 50, 21, 11, 16, 58, 29, 0)
s = 82: (0, 61, 44, 94, 165, 69, 37, 23, 17, 91, 20, 0)
s = 83: (0, 76, 35, 112, 188, 37, 18, 14, 36, 107, 20, 0)
s = 84: (0, 109, 40, 78, 198, 51, 16, 14, 33, 73, 18, 0)
s = 85: (0, 96, 39, 94, 275, 38, 23, 36, 27, 60, 28, 0)
s = 86: (0, 88, 35, 68, 191, 48, 13, 15, 20, 87, 19, 0)
s = 87: (0, 124, 50, 134, 175, 65, 25, 23, 21, 92, 24, 0)
s = 88: (0, 72, 35, 43, 197, 68, 18, 19, 18, 82, 24, 0)
s = 89: (0, 144, 65, 95, 111, 31, 17, 27, 17, 59, 21, 0)
s = 90: (0, 113, 42, 66, 133, 39, 31, 20, 25, 130, 31, 0)
s = 91: (0, 118, 51, 41, 232, 31, 34, 20, 36, 84, 21, 0)
s = 92: (0, 115, 37, 65, 178, 39, 33, 17, 34, 75, 21, 0)
s = 93: (0, 84, 39, 79, 215, 40, 22, 17, 19, 72, 21, 0)
s = 94: (0, 112, 62, 59, 156, 72, 30, 14, 22, 117, 22, 0)
s = 95: (0, 65, 59, 105, 166, 29, 26, 28, 20, 132, 24, 0)
s = 96: (0, 52, 56, 59, 167, 62, 26, 13, 18, 64, 27, 0)
s = 97: (0, 88, 87, 51, 111, 49, 25, 11, 19, 58, 22, 0)
s = 98: (0, 65, 37, 78, 148, 34, 12, 14, 30, 85, 16, 0)
s = 99: (0, 87, 62, 49, 170, 38, 20, 18, 28, 120, 29, 0)
s = 100: (0, 154, 56, 89, 167, 50, 32, 17, 27, 74, 35, 0)
s = 101: (0, 93, 104, 96, 162, 60, 18, 15, 33, 54, 27, 0)
s = 102: (0, 125, 82, 83, 125, 35, 19, 18, 30, 63, 15, 0)
s = 103: (0, 90, 48, 70, 162, 58, 16, 22, 37, 132, 27, 0)
s = 104: (0, 65, 51, 50, 176, 72, 20, 12, 30, 101, 29, 0)
s = 105: (0, 145, 60, 57, 137, 47, 26, 16, 19, 71, 27, 0)
s = 106: (0, 87, 47, 69, 150, 39, 25, 29, 16, 109, 25, 0)
s = 107: (0, 104, 47, 77, 109, 31, 23, 23, 19, 142, 29, 0)
s = 108: (0, 114, 36, 82, 192, 50, 20, 20, 25, 94, 23, 0)
s = 109: (0, 117, 53, 91, 120, 31, 20, 16, 17, 124, 19, 0)
s = 110: (0, 68, 71, 89, 166, 30, 21, 18, 21, 83, 21, 0)
s = 111: (0, 93, 60, 58, 125, 44, 17, 11, 15, 85, 35, 0)
s = 112: (0, 116, 71, 112, 189, 51, 18, 12, 29, 52, 22, 0)
s = 113: (0, 169, 44, 117, 186, 54, 18, 17, 20, 49, 32, 0)
s = 114: (0, 109, 51, 84, 207, 50, 18, 20, 24, 139, 24, 0)
s = 115: (0, 79, 63, 91, 225, 73, 16, 11, 31, 110, 21, 0)
s = 116: (0, 67, 55, 86, 122, 47, 16, 21, 17, 61, 22, 0)
s = 117: (0, 121, 76, 87, 180, 62, 26, 11, 24, 92, 21, 0)
s = 118: (0, 57, 41, 124, 116, 32, 24, 17, 31, 115, 17, 0)
s = 119: (0, 99, 37, 70, 133, 44, 21, 23, 26, 121, 36, 0)
s = 120: (0, 120, 82, 91, 197, 33, 22, 28, 21, 87, 22, 0)
s = 121: (0, 69, 37, 61, 129, 32, 21, 24, 34, 74, 26, 0)
s = 122: (0, 62, 40, 55, 170, 47, 15, 23, 32, 72, 35, 0)
s = 123: (0, 133, 47, 49, 180, 38, 30, 13, 23, 94, 31, 0)
s = 124: (0, 148, 65, 63, 136, 40, 22, 16, 28, 99, 24, 0)
s = 125: (0, 119, 54, 60, 199, 38, 15, 15, 18, 89, 31, 0)
s = 126: (0, 92, 32, 85, 216, 42, 23, 18, 37, 75, 15, 0)
s = 127: (0, 127, 30, 60, 246, 55, 32, 15, 16, 72, 17, 0)
s = 128: (0, 56, 52, 49, 128, 30, 17, 18, 26, 175, 20, 0)
s = 129: (0, 65, 56, 43, 189, 37, 15, 13, 26, 76, 20, 0)
s = 130: (0, 107, 44, 79, 207, 87, 19, 27, 19, 55, 19, 0)
s = 131: (0, 53, 50, 127, 92, 87, 31, 10, 19, 151, 23, 0)
s = 132: (0, 126, 67, 75, 142, 38, 25, 16, 17, 64, 21, 0)
s = 133: (0, 63, 67, 67, 177, 62, 23, 14, 15, 111, 23, 0)
s = 134: (0, 88, 38, 78, 126, 42, 14, 27, 19, 149, 36, 0)
s = 135: (0, 78, 30, 40, 290, 51, 20, 18, 22, 67, 27, 0)
s = 136: (0, 95, 47, 52, 116, 34, 32, 27, 21, 73, 29, 0)
s = 137: (0, 134, 38, 55, 333, 42, 18, 19, 19, 82, 29, 0)
s = 138: (0, 79, 35, 61, 128, 45, 31, 11, 32, 104, 33, 0)
s = 139: (0, 108, 44, 80, 200, 50, 27, 15, 21, 141, 20, 0)
s = 140: (0, 75, 72, 93, 137, 48, 25, 30, 18, 97, 28, 0)
s = 141: (0, 91, 67, 61, 280, 26, 22, 27, 30, 90, 16, 0)
s = 142: (0, 130, 35, 72, 212, 73, 14, 29, 15, 82, 43, 0)
s = 143: (0, 79, 51, 71, 110, 42, 15, 19, 28, 108, 25, 0)
s = 144: (0, 115, 42, 59, 261, 53, 15, 20, 19, 134, 22, 0)
s = 145: (0, 101, 45, 43, 224, 30, 22, 11, 26, 93, 24, 0)
s = 146: (0, 104, 40, 64, 114, 51, 19, 17, 25, 92, 22, 0)
s = 147: (0, 110, 74, 99, 160, 51, 18, 16, 31, 98, 21, 0)
s = 148: (0, 65, 37, 100, 242, 51, 20, 20, 17, 103, 21, 0)
s = 149: (0, 72, 69, 106, 126, 54, 30, 17, 23, 106, 23, 0)
s = 150: (0, 57, 66, 41, 139, 76, 24, 22, 28, 152, 37, 0)
s = 151: (0, 126, 68, 67, 94, 55, 26, 22, 18, 79, 20, 0)
s = 152: (0, 71, 34, 73, 198, 38, 13, 17, 31, 102, 22, 0)
s = 153: (0, 93, 90, 45, 122, 58, 17, 11, 31, 113, 24, 0)
s = 154: (0, 69, 80, 70, 154, 36, 17, 19, 16, 128, 21, 0)
s = 155: (0, 135, 85, 57, 117, 33, 19, 25, 25, 69, 30, 0)
s = 156: (0, 128, 33, 70, 132, 81, 21, 21, 31, 102, 30, 0)
s = 157: (0, 107, 45, 129, 224, 40, 15, 23, 37, 55, 34, 0)
s = 158: (0, 75, 35, 99, 174, 35, 20, 24, 35, 110, 38, 0)
s = 159: (0, 74, 58, 120, 181, 62, 27, 15, 17, 82, 20, 0)
s = 160: (0, 138, 44, 105, 137, 42, 14, 13, 24, 147, 35, 0)
s = 161: (0, 114, 59, 65, 98, 52, 22, 29, 32, 80, 24, 0)
s = 162: (0, 91, 43, 60, 130, 42, 24, 34, 23, 62, 26, 0)
s = 163: (0, 84, 54, 102, 105, 52, 17, 16, 41, 119, 24, 0)
s = 164: (0, 100, 43, 134, 261, 46, 12, 16, 17, 62, 26, 0)
s = 165: (0, 103, 45, 69, 253, 33, 17, 25, 41, 71, 26, 0)
s = 166: (0, 82, 93, 67, 193, 60, 29, 19, 32, 91, 24, 0)
s = 167: (0, 138, 48, 91, 180, 34, 14, 11, 23, 89, 26, 0)
s = 168: (0, 89, 60, 81, 256, 47, 19, 26, 16, 143, 34, 0)
s = 169: (0, 53, 80, 78, 194, 62, 31, 12, 34, 115, 33, 0)
s = 170: (0, 80, 35, 125, 194, 39, 15, 14, 20, 112, 37, 0)
s = 171: (0, 65, 44, 90, 162, 49, 17, 17, 19, 57, 32, 0)
s = 172: (0, 81, 72, 59, 190, 38, 26, 18, 24, 107, 26, 0)
s = 173: (0, 124, 86, 45, 139, 51, 17, 25, 16, 100, 19, 0)
s = 174: (0, 80, 60, 79, 161, 46, 14, 16, 30, 151, 24, 0)
s = 175: (0, 105, 70, 50, 154, 61, 31, 20, 20, 78, 27, 0)
s = 176: (0, 112, 68, 76, 222, 63, 18, 13, 22, 83, 26, 0)
s = 177: (0, 107, 55, 101, 120, 43, 28, 25, 26, 124, 18, 0)
s = 178: (0, 58, 62, 54, 121, 35, 28, 31, 26, 112, 19, 0)
s = 179: (0, 144, 36, 55, 185, 89, 23, 16, 21, 107, 26, 0)
s = 180: (0, 82, 52, 80, 117, 67, 17, 27, 22, 108, 27, 0)
s = 181: (0, 80, 47, 94, 205, 47, 32, 17, 22, 115, 31, 0)
s = 182: (0, 131, 38, 72, 90, 32, 19, 25, 17, 104, 22, 0)
s = 183: (0, 137, 36, 67, 171, 88, 22, 23, 26, 93, 29, 0)
s = 184: (0, 114, 47, 105, 141, 57, 20, 27, 19, 84, 21, 0)
s = 185: (0, 95, 42, 47, 105, 33, 26, 15, 16, 84, 21, 0)
s = 186: (0, 112, 40, 111, 123, 43, 18, 12, 21, 87, 24, 0)
s = 187: (0, 103, 100, 68, 275, 51, 18, 13, 21, 104, 33, 0)
s = 188: (0, 68, 81, 50, 163, 50, 26, 14, 27, 69, 19, 0)
s = 189: (0, 83, 51, 65, 175, 65, 19, 14, 20, 127, 28, 0)
s = 190: (0, 84, 53, 64, 154, 52, 19, 23, 29, 90, 20, 0)
s = 191: (0, 78, 62, 48, 243, 59, 32, 11, 26, 156, 25, 0)
s = 192: (0, 92, 77, 107, 88, 41, 13, 22, 25, 100, 17, 0)
s = 193: (0, 66, 47, 95, 208, 38, 34, 29, 30, 63, 18, 0)
s = 194: (0, 92, 49, 116, 166, 36, 20, 15, 23, 115, 24, 0)
s = 195: (0, 89, 46, 96, 212, 43, 14, 20, 20, 166, 38, 0)
s = 196: (0, 148, 55, 65, 128, 33, 19, 17, 22, 64, 35, 0)
s = 197: (0, 106, 55, 58, 153, 37, 18, 23, 17, 88, 35, 0)
s = 198: (0, 91, 51, 45, 122, 54, 22, 15, 17, 74, 29, 0)
s = 199: (0, 139, 64, 52, 169, 83, 20, 12, 27, 79, 21, 0)
s = 200: (0, 107, 46, 89, 201, 40, 30, 24, 28, 91, 31, 0)
************************************************************************
ES/LS-VALUES:
jobnr.   ES(i)    LS(i)
------------------------------------------------------------------------
  0        0        0
  1        0       47
  2        0       57
  3        0       49
  4        9       57
  5        7       71
  6        7       58
  7       11       73
  8       24       75
  9       11       63
 10       24       73
 11       27       77
************************************************************************
BIG-M-VALUES:
M1 = 31, M2 = 333
************************************************************************
